pair_coeff    1    1     0.121380     3.201250   1.2080   2.600  # NA NA eps*0.714 sig*0.985
pair_coeff    1    2     0.077888     3.345739   1.3212   2.600  # NA CR eps*0.714 sig*0.985
pair_coeff    1    3     0.077888     3.345739   1.3212   2.600  # NA CW eps*0.714 sig*0.985
pair_coeff    1    4     0.075630     3.322094   1.5485   2.600  # NA C1 eps*0.714 sig*0.985
pair_coeff    1    5     0.050990     2.762394   0.0000   0.000  # NA HCR eps*0.714 sig*0.985
pair_coeff    1    6     0.050990     2.762394   0.0000   0.000  # NA HCW eps*0.714 sig*0.985
pair_coeff    1    7     0.050990     2.807682   0.0000   0.000  # NA H1 eps*0.714 sig*0.985
pair_coeff    1    8     0.075630     3.322094   1.5485   2.600  # NA CE eps*0.714 sig*0.985
pair_coeff    1    9     0.055989     2.807682   0.0000   0.000  # NA HC eps*0.784 sig*0.985
pair_coeff    1   10     0.116620     3.201250   1.4322   2.600  # NA N3A eps*0.686 sig*0.985
pair_coeff    1   11     0.072664     3.225781   1.3846   2.600  # NA CZA eps*0.686 sig*0.985
pair_coeff    1   12     0.116620     3.176530   1.4322   2.600  # NA NZA eps*0.686 sig*0.985
pair_coeff    2    2     0.049980     3.496750   1.4450   2.600  # CR CR eps*0.714 sig*0.985
pair_coeff    2    3     0.049980     3.496750   1.4450   2.600  # CR CW eps*0.714 sig*0.985
pair_coeff    2    4     0.048531     3.472038   1.6936   2.600  # CR C1 eps*0.714 sig*0.985
pair_coeff    2    5     0.032720     2.887075   0.0000   0.000  # CR HCR eps*0.714 sig*0.985
pair_coeff    2    6     0.032720     2.887075   0.0000   0.000  # CR HCW eps*0.714 sig*0.985
pair_coeff    2    7     0.032720     2.934407   0.0000   0.000  # CR H1 eps*0.714 sig*0.985
pair_coeff    2    8     0.048531     3.472038   1.6936   2.600  # CR CE eps*0.714 sig*0.985
pair_coeff    2    9     0.035927     2.934407   0.0000   0.000  # CR HC eps*0.784 sig*0.985
pair_coeff    2   10     0.074834     3.345739   1.5664   2.600  # CR N3A eps*0.686 sig*0.985
pair_coeff    2   11     0.046627     3.371377   1.5143   2.600  # CR CZA eps*0.686 sig*0.985
pair_coeff    2   12     0.074834     3.319903   1.5664   2.600  # CR NZA eps*0.686 sig*0.985
pair_coeff    3    3     0.049980     3.496750   1.4450   2.600  # CW CW eps*0.714 sig*0.985
pair_coeff    3    4     0.048531     3.472038   1.6936   2.600  # CW C1 eps*0.714 sig*0.985
pair_coeff    3    5     0.032720     2.887075   0.0000   0.000  # CW HCR eps*0.714 sig*0.985
pair_coeff    3    6     0.032720     2.887075   0.0000   0.000  # CW HCW eps*0.714 sig*0.985
pair_coeff    3    7     0.032720     2.934407   0.0000   0.000  # CW H1 eps*0.714 sig*0.985
pair_coeff    3    8     0.048531     3.472038   1.6936   2.600  # CW CE eps*0.714 sig*0.985
pair_coeff    3    9     0.035927     2.934407   0.0000   0.000  # CW HC eps*0.784 sig*0.985
pair_coeff    3   10     0.074834     3.345739   1.5664   2.600  # CW N3A eps*0.686 sig*0.985
pair_coeff    3   11     0.046627     3.371377   1.5143   2.600  # CW CZA eps*0.686 sig*0.985
pair_coeff    3   12     0.074834     3.319903   1.5664   2.600  # CW NZA eps*0.686 sig*0.985
pair_coeff    4    4     0.047123     3.447500   1.9850   2.600  # C1 C1 eps*0.714 sig*0.985
pair_coeff    4    5     0.031771     2.866672   0.0000   0.000  # C1 HCR eps*0.714 sig*0.985
pair_coeff    4    6     0.031771     2.866672   0.0000   0.000  # C1 HCW eps*0.714 sig*0.985
pair_coeff    4    7     0.031771     2.913669   0.0000   0.000  # C1 H1 eps*0.714 sig*0.985
pair_coeff    4    8     0.047123     3.447500   1.9850   2.600  # C1 CE eps*0.714 sig*0.985
pair_coeff    4    9     0.034886     2.913669   0.0000   0.000  # C1 HC eps*0.784 sig*0.985
pair_coeff    4   10     0.072664     3.322094   1.8359   2.600  # C1 N3A eps*0.686 sig*0.985
pair_coeff    4   11     0.045275     3.347551   1.7749   2.600  # C1 CZA eps*0.686 sig*0.985
pair_coeff    4   12     0.072664     3.296441   1.8359   2.600  # C1 NZA eps*0.686 sig*0.985
pair_coeff    5    5     0.021420     2.383700   0.0000   0.000  # HCR HCR eps*0.714 sig*0.985
pair_coeff    5    6     0.021420     2.383700   0.0000   0.000  # HCR HCW eps*0.714 sig*0.985
pair_coeff    5    7     0.021420     2.422780   0.0000   0.000  # HCR H1 eps*0.714 sig*0.985
pair_coeff    5    8     0.031771     2.866672   0.0000   0.000  # HCR CE eps*0.714 sig*0.985
pair_coeff    5    9     0.023520     2.422780   0.0000   0.000  # HCR HC eps*0.784 sig*0.985
pair_coeff    5   10     0.048990     2.762394   0.0000   0.000  # HCR N3A eps*0.686 sig*0.985
pair_coeff    5   11     0.030525     2.783562   0.0000   0.000  # HCR CZA eps*0.686 sig*0.985
pair_coeff    5   12     0.048990     2.741062   0.0000   0.000  # HCR NZA eps*0.686 sig*0.985
pair_coeff    6    6     0.021420     2.383700   0.0000   0.000  # HCW HCW eps*0.714 sig*0.985
pair_coeff    6    7     0.021420     2.422780   0.0000   0.000  # HCW H1 eps*0.714 sig*0.985
pair_coeff    6    8     0.031771     2.866672   0.0000   0.000  # HCW CE eps*0.714 sig*0.985
pair_coeff    6    9     0.023520     2.422780   0.0000   0.000  # HCW HC eps*0.784 sig*0.985
pair_coeff    6   10     0.048990     2.762394   0.0000   0.000  # HCW N3A eps*0.686 sig*0.985
pair_coeff    6   11     0.030525     2.783562   0.0000   0.000  # HCW CZA eps*0.686 sig*0.985
pair_coeff    6   12     0.048990     2.741062   0.0000   0.000  # HCW NZA eps*0.686 sig*0.985
pair_coeff    7    7     0.021420     2.462500   0.0000   0.000  # H1 H1 eps*0.714 sig*0.985
pair_coeff    7    8     0.031771     2.913669   0.0000   0.000  # H1 CE eps*0.714 sig*0.985
pair_coeff    7    9     0.023520     2.462500   0.0000   0.000  # H1 HC eps*0.784 sig*0.985
pair_coeff    7   10     0.048990     2.807682   0.0000   0.000  # H1 N3A eps*0.686 sig*0.985
pair_coeff    7   11     0.030525     2.829197   0.0000   0.000  # H1 CZA eps*0.686 sig*0.985
pair_coeff    7   12     0.048990     2.786001   0.0000   0.000  # H1 NZA eps*0.686 sig*0.985
pair_coeff    8    8     0.047123     3.447500   1.9850   2.600  # CE CE eps*0.714 sig*0.985
pair_coeff    8    9     0.034886     2.913669   0.0000   0.000  # CE HC eps*0.784 sig*0.985
pair_coeff    8   10     0.072664     3.322094   1.8359   2.600  # CE N3A eps*0.686 sig*0.985
pair_coeff    8   11     0.045275     3.347551   1.7749   2.600  # CE CZA eps*0.686 sig*0.985
pair_coeff    8   12     0.072664     3.296441   1.8359   2.600  # CE NZA eps*0.686 sig*0.985
pair_coeff    9    9     0.030000     2.462500   0.0000   0.000  # HC HC eps*1.000 sig*0.985
pair_coeff    9   10     0.051418     2.807682   0.0000   0.000  # HC N3A eps*0.720 sig*0.985
pair_coeff    9   11     0.032038     2.829197   0.0000   0.000  # HC CZA eps*0.720 sig*0.985
pair_coeff    9   12     0.051418     2.786001   0.0000   0.000  # HC NZA eps*0.720 sig*0.985
pair_coeff   10   10     0.110840     3.201250   1.6980   2.600  # N3A N3A eps*0.652 sig*0.985
pair_coeff   10   11     0.069062     3.225781   1.6416   2.600  # N3A CZA eps*0.652 sig*0.985
pair_coeff   10   12     0.110840     3.176530   1.6980   2.600  # N3A NZA eps*0.652 sig*0.985
pair_coeff   11   11     0.043031     3.250500   1.5870   2.600  # CZA CZA eps*0.652 sig*0.985
pair_coeff   11   12     0.069062     3.200871   1.6416   2.600  # CZA NZA eps*0.652 sig*0.985
pair_coeff   12   12     0.110840     3.152000   1.6980   2.600  # NZA NZA eps*0.652 sig*0.985
pair_coeff    1   13     0.000000     0.000000   1.2080   2.600  # NA NA-DP
pair_coeff    1   14     0.000000     0.000000   1.3212   2.600  # NA CR-DP
pair_coeff    1   15     0.000000     0.000000   1.3212   2.600  # NA CW-DP
pair_coeff    1   16     0.000000     0.000000   1.5485   2.600  # NA C1-DP
pair_coeff    1   17     0.000000     0.000000   1.5485   2.600  # NA CE-DP
pair_coeff    1   18     0.000000     0.000000   1.4322   2.600  # NA N3A-DP
pair_coeff    1   19     0.000000     0.000000   1.3846   2.600  # NA CZA-DP
pair_coeff    1   20     0.000000     0.000000   1.4322   2.600  # NA NZA-DP
pair_coeff    2   13     0.000000     0.000000   1.3212   2.600  # CR NA-DP
pair_coeff    2   14     0.000000     0.000000   1.4450   2.600  # CR CR-DP
pair_coeff    2   15     0.000000     0.000000   1.4450   2.600  # CR CW-DP
pair_coeff    2   16     0.000000     0.000000   1.6936   2.600  # CR C1-DP
pair_coeff    2   17     0.000000     0.000000   1.6936   2.600  # CR CE-DP
pair_coeff    2   18     0.000000     0.000000   1.5664   2.600  # CR N3A-DP
pair_coeff    2   19     0.000000     0.000000   1.5143   2.600  # CR CZA-DP
pair_coeff    2   20     0.000000     0.000000   1.5664   2.600  # CR NZA-DP
pair_coeff    3   13     0.000000     0.000000   1.3212   2.600  # CW NA-DP
pair_coeff    3   14     0.000000     0.000000   1.4450   2.600  # CW CR-DP
pair_coeff    3   15     0.000000     0.000000   1.4450   2.600  # CW CW-DP
pair_coeff    3   16     0.000000     0.000000   1.6936   2.600  # CW C1-DP
pair_coeff    3   17     0.000000     0.000000   1.6936   2.600  # CW CE-DP
pair_coeff    3   18     0.000000     0.000000   1.5664   2.600  # CW N3A-DP
pair_coeff    3   19     0.000000     0.000000   1.5143   2.600  # CW CZA-DP
pair_coeff    3   20     0.000000     0.000000   1.5664   2.600  # CW NZA-DP
pair_coeff    4   13     0.000000     0.000000   1.5485   2.600  # C1 NA-DP
pair_coeff    4   14     0.000000     0.000000   1.6936   2.600  # C1 CR-DP
pair_coeff    4   15     0.000000     0.000000   1.6936   2.600  # C1 CW-DP
pair_coeff    4   16     0.000000     0.000000   1.9850   2.600  # C1 C1-DP
pair_coeff    4   17     0.000000     0.000000   1.9850   2.600  # C1 CE-DP
pair_coeff    4   18     0.000000     0.000000   1.8359   2.600  # C1 N3A-DP
pair_coeff    4   19     0.000000     0.000000   1.7749   2.600  # C1 CZA-DP
pair_coeff    4   20     0.000000     0.000000   1.8359   2.600  # C1 NZA-DP
pair_coeff    5   13     0.000000     0.000000   0.0000   0.000  # HCR NA-DP
pair_coeff    5   14     0.000000     0.000000   0.0000   0.000  # HCR CR-DP
pair_coeff    5   15     0.000000     0.000000   0.0000   0.000  # HCR CW-DP
pair_coeff    5   16     0.000000     0.000000   0.0000   0.000  # HCR C1-DP
pair_coeff    5   17     0.000000     0.000000   0.0000   0.000  # HCR CE-DP
pair_coeff    5   18     0.000000     0.000000   0.0000   0.000  # HCR N3A-DP
pair_coeff    5   19     0.000000     0.000000   0.0000   0.000  # HCR CZA-DP
pair_coeff    5   20     0.000000     0.000000   0.0000   0.000  # HCR NZA-DP
pair_coeff    6   13     0.000000     0.000000   0.0000   0.000  # HCW NA-DP
pair_coeff    6   14     0.000000     0.000000   0.0000   0.000  # HCW CR-DP
pair_coeff    6   15     0.000000     0.000000   0.0000   0.000  # HCW CW-DP
pair_coeff    6   16     0.000000     0.000000   0.0000   0.000  # HCW C1-DP
pair_coeff    6   17     0.000000     0.000000   0.0000   0.000  # HCW CE-DP
pair_coeff    6   18     0.000000     0.000000   0.0000   0.000  # HCW N3A-DP
pair_coeff    6   19     0.000000     0.000000   0.0000   0.000  # HCW CZA-DP
pair_coeff    6   20     0.000000     0.000000   0.0000   0.000  # HCW NZA-DP
pair_coeff    7   13     0.000000     0.000000   0.0000   0.000  # H1 NA-DP
pair_coeff    7   14     0.000000     0.000000   0.0000   0.000  # H1 CR-DP
pair_coeff    7   15     0.000000     0.000000   0.0000   0.000  # H1 CW-DP
pair_coeff    7   16     0.000000     0.000000   0.0000   0.000  # H1 C1-DP
pair_coeff    7   17     0.000000     0.000000   0.0000   0.000  # H1 CE-DP
pair_coeff    7   18     0.000000     0.000000   0.0000   0.000  # H1 N3A-DP
pair_coeff    7   19     0.000000     0.000000   0.0000   0.000  # H1 CZA-DP
pair_coeff    7   20     0.000000     0.000000   0.0000   0.000  # H1 NZA-DP
pair_coeff    8   13     0.000000     0.000000   1.5485   2.600  # CE NA-DP
pair_coeff    8   14     0.000000     0.000000   1.6936   2.600  # CE CR-DP
pair_coeff    8   15     0.000000     0.000000   1.6936   2.600  # CE CW-DP
pair_coeff    8   16     0.000000     0.000000   1.9850   2.600  # CE C1-DP
pair_coeff    8   17     0.000000     0.000000   1.9850   2.600  # CE CE-DP
pair_coeff    8   18     0.000000     0.000000   1.8359   2.600  # CE N3A-DP
pair_coeff    8   19     0.000000     0.000000   1.7749   2.600  # CE CZA-DP
pair_coeff    8   20     0.000000     0.000000   1.8359   2.600  # CE NZA-DP
pair_coeff    9   13     0.000000     0.000000   0.0000   0.000  # HC NA-DP
pair_coeff    9   14     0.000000     0.000000   0.0000   0.000  # HC CR-DP
pair_coeff    9   15     0.000000     0.000000   0.0000   0.000  # HC CW-DP
pair_coeff    9   16     0.000000     0.000000   0.0000   0.000  # HC C1-DP
pair_coeff    9   17     0.000000     0.000000   0.0000   0.000  # HC CE-DP
pair_coeff    9   18     0.000000     0.000000   0.0000   0.000  # HC N3A-DP
pair_coeff    9   19     0.000000     0.000000   0.0000   0.000  # HC CZA-DP
pair_coeff    9   20     0.000000     0.000000   0.0000   0.000  # HC NZA-DP
pair_coeff   10   13     0.000000     0.000000   1.4322   2.600  # N3A NA-DP
pair_coeff   10   14     0.000000     0.000000   1.5664   2.600  # N3A CR-DP
pair_coeff   10   15     0.000000     0.000000   1.5664   2.600  # N3A CW-DP
pair_coeff   10   16     0.000000     0.000000   1.8359   2.600  # N3A C1-DP
pair_coeff   10   17     0.000000     0.000000   1.8359   2.600  # N3A CE-DP
pair_coeff   10   18     0.000000     0.000000   1.6980   2.600  # N3A N3A-DP
pair_coeff   10   19     0.000000     0.000000   1.6416   2.600  # N3A CZA-DP
pair_coeff   10   20     0.000000     0.000000   1.6980   2.600  # N3A NZA-DP
pair_coeff   11   13     0.000000     0.000000   1.3846   2.600  # CZA NA-DP
pair_coeff   11   14     0.000000     0.000000   1.5143   2.600  # CZA CR-DP
pair_coeff   11   15     0.000000     0.000000   1.5143   2.600  # CZA CW-DP
pair_coeff   11   16     0.000000     0.000000   1.7749   2.600  # CZA C1-DP
pair_coeff   11   17     0.000000     0.000000   1.7749   2.600  # CZA CE-DP
pair_coeff   11   18     0.000000     0.000000   1.6416   2.600  # CZA N3A-DP
pair_coeff   11   19     0.000000     0.000000   1.5870   2.600  # CZA CZA-DP
pair_coeff   11   20     0.000000     0.000000   1.6416   2.600  # CZA NZA-DP
pair_coeff   12   13     0.000000     0.000000   1.4322   2.600  # NZA NA-DP
pair_coeff   12   14     0.000000     0.000000   1.5664   2.600  # NZA CR-DP
pair_coeff   12   15     0.000000     0.000000   1.5664   2.600  # NZA CW-DP
pair_coeff   12   16     0.000000     0.000000   1.8359   2.600  # NZA C1-DP
pair_coeff   12   17     0.000000     0.000000   1.8359   2.600  # NZA CE-DP
pair_coeff   12   18     0.000000     0.000000   1.6980   2.600  # NZA N3A-DP
pair_coeff   12   19     0.000000     0.000000   1.6416   2.600  # NZA CZA-DP
pair_coeff   12   20     0.000000     0.000000   1.6980   2.600  # NZA NZA-DP
pair_coeff   13   13     0.000000     0.000000   1.2080   2.600  # NA-DP NA-DP
pair_coeff   13   14     0.000000     0.000000   1.3212   2.600  # NA-DP CR-DP
pair_coeff   13   15     0.000000     0.000000   1.3212   2.600  # NA-DP CW-DP
pair_coeff   13   16     0.000000     0.000000   1.5485   2.600  # NA-DP C1-DP
pair_coeff   13   17     0.000000     0.000000   1.5485   2.600  # NA-DP CE-DP
pair_coeff   13   18     0.000000     0.000000   1.4322   2.600  # NA-DP N3A-DP
pair_coeff   13   19     0.000000     0.000000   1.3846   2.600  # NA-DP CZA-DP
pair_coeff   13   20     0.000000     0.000000   1.4322   2.600  # NA-DP NZA-DP
pair_coeff   14   14     0.000000     0.000000   1.4450   2.600  # CR-DP CR-DP
pair_coeff   14   15     0.000000     0.000000   1.4450   2.600  # CR-DP CW-DP
pair_coeff   14   16     0.000000     0.000000   1.6936   2.600  # CR-DP C1-DP
pair_coeff   14   17     0.000000     0.000000   1.6936   2.600  # CR-DP CE-DP
pair_coeff   14   18     0.000000     0.000000   1.5664   2.600  # CR-DP N3A-DP
pair_coeff   14   19     0.000000     0.000000   1.5143   2.600  # CR-DP CZA-DP
pair_coeff   14   20     0.000000     0.000000   1.5664   2.600  # CR-DP NZA-DP
pair_coeff   15   15     0.000000     0.000000   1.4450   2.600  # CW-DP CW-DP
pair_coeff   15   16     0.000000     0.000000   1.6936   2.600  # CW-DP C1-DP
pair_coeff   15   17     0.000000     0.000000   1.6936   2.600  # CW-DP CE-DP
pair_coeff   15   18     0.000000     0.000000   1.5664   2.600  # CW-DP N3A-DP
pair_coeff   15   19     0.000000     0.000000   1.5143   2.600  # CW-DP CZA-DP
pair_coeff   15   20     0.000000     0.000000   1.5664   2.600  # CW-DP NZA-DP
pair_coeff   16   16     0.000000     0.000000   1.9850   2.600  # C1-DP C1-DP
pair_coeff   16   17     0.000000     0.000000   1.9850   2.600  # C1-DP CE-DP
pair_coeff   16   18     0.000000     0.000000   1.8359   2.600  # C1-DP N3A-DP
pair_coeff   16   19     0.000000     0.000000   1.7749   2.600  # C1-DP CZA-DP
pair_coeff   16   20     0.000000     0.000000   1.8359   2.600  # C1-DP NZA-DP
pair_coeff   17   17     0.000000     0.000000   1.9850   2.600  # CE-DP CE-DP
pair_coeff   17   18     0.000000     0.000000   1.8359   2.600  # CE-DP N3A-DP
pair_coeff   17   19     0.000000     0.000000   1.7749   2.600  # CE-DP CZA-DP
pair_coeff   17   20     0.000000     0.000000   1.8359   2.600  # CE-DP NZA-DP
pair_coeff   18   18     0.000000     0.000000   1.6980   2.600  # N3A-DP N3A-DP
pair_coeff   18   19     0.000000     0.000000   1.6416   2.600  # N3A-DP CZA-DP
pair_coeff   18   20     0.000000     0.000000   1.6980   2.600  # N3A-DP NZA-DP
pair_coeff   19   19     0.000000     0.000000   1.5870   2.600  # CZA-DP CZA-DP
pair_coeff   19   20     0.000000     0.000000   1.6416   2.600  # CZA-DP NZA-DP
pair_coeff   20   20     0.000000     0.000000   1.6980   2.600  # NZA-DP NZA-DP
